76 76
6 1
76 27
56 9
16 10
33 11
65 23
49 13
67 3
71 26
42 8
25 28
2 18
39 38
20 34
32 14
48 24
38 2
30 5
55 8
27 3
12 5
15 20
1 37
72 37
74 29
63 28
47 17
61 16
7 25
50 7
28 9
57 27
75 19
59 34
9 25
24 16
62 11
4 36
3 30
14 10
73 32
23 13
64 2
51 33
70 14
34 22
5 1
45 26
41 12
18 35
52 29
21 31
44 6
66 22
43 15
37 17
8 19
40 36
35 24
46 21
29 4
19 6
26 18
58 23
54 12
13 32
69 33
31 20
36 30
60 15
11 21
17 38
68 4
22 35
53 31
10 7
